10	5
0	5	4	2	3	1	5
1	2	6	8
2	1	6
3	1	9
4	2	10	11
5	1	6
6	1	7
7	1	10
8	1	7
9	1	6
10	1	11
11	0
0	0	0	0	0	0	0
1	1	0	0	2	0	3
2	3	4	0	2	5	0
3	6	0	2	4	0	0
4	8	5	0	1	2	3
5	9	0	5	0	0	0
6	10	0	0	3	5	0
7	8	4	4	0	5	3
8	2	0	0	5	3	0
9	5	0	0	0	2	3
10	1	2	0	4	2	0
11	0	0	0	0	0	0
5	5	5	5	5
